c Generated map
c Size: 9 * 9, weights in range: 1 to 10, walls: False, with ratio 0.0
c dim 7 of 8
c
p sp 81 144
c graph contains 81 nodes and 144 arcs
c
a 1 10 6
a 10 1 6
a 1 2 4
a 2 1 4
a 2 11 9
a 11 2 9
a 2 3 1
a 3 2 1
a 3 12 10
a 12 3 10
a 3 4 1
a 4 3 1
a 4 13 3
a 13 4 3
a 4 5 3
a 5 4 3
a 5 14 7
a 14 5 7
a 5 6 4
a 6 5 4
a 6 15 2
a 15 6 2
a 6 7 5
a 7 6 5
a 7 16 5
a 16 7 5
a 7 8 4
a 8 7 4
a 8 17 10
a 17 8 10
a 8 9 9
a 9 8 9
a 9 18 6
a 18 9 6
a 10 19 8
a 19 10 8
a 10 11 5
a 11 10 5
a 11 20 5
a 20 11 5
a 11 12 6
a 12 11 6
a 12 21 5
a 21 12 5
a 12 13 5
a 13 12 5
a 13 22 1
a 22 13 1
a 13 14 9
a 14 13 9
a 14 23 2
a 23 14 2
a 14 15 6
a 15 14 6
a 15 24 4
a 24 15 4
a 15 16 1
a 16 15 1
a 16 25 7
a 25 16 7
a 16 17 7
a 17 16 7
a 17 26 1
a 26 17 1
a 17 18 8
a 18 17 8
a 18 27 5
a 27 18 5
a 19 28 9
a 28 19 9
a 19 20 2
a 20 19 2
a 20 29 1
a 29 20 1
a 20 21 8
a 21 20 8
a 21 30 9
a 30 21 9
a 21 22 7
a 22 21 7
a 22 31 1
a 31 22 1
a 22 23 7
a 23 22 7
a 23 32 2
a 32 23 2
a 23 24 8
a 24 23 8
a 24 33 9
a 33 24 9
a 24 25 2
a 25 24 2
a 25 34 10
a 34 25 10
a 25 26 8
a 26 25 8
a 26 35 5
a 35 26 5
a 26 27 7
a 27 26 7
a 27 36 5
a 36 27 5
a 28 37 9
a 37 28 9
a 28 29 1
a 29 28 1
a 29 38 7
a 38 29 7
a 29 30 8
a 30 29 8
a 30 39 6
a 39 30 6
a 30 31 6
a 31 30 6
a 31 40 5
a 40 31 5
a 31 32 5
a 32 31 5
a 32 41 10
a 41 32 10
a 32 33 1
a 33 32 1
a 33 42 1
a 42 33 1
a 33 34 3
a 34 33 3
a 34 43 7
a 43 34 7
a 34 35 1
a 35 34 1
a 35 44 4
a 44 35 4
a 35 36 9
a 36 35 9
a 36 45 9
a 45 36 9
a 37 46 10
a 46 37 10
a 37 38 7
a 38 37 7
a 38 47 6
a 47 38 6
a 38 39 6
a 39 38 6
a 39 48 3
a 48 39 3
a 39 40 10
a 40 39 10
a 40 49 4
a 49 40 4
a 40 41 8
a 41 40 8
a 41 50 8
a 50 41 8
a 41 42 9
a 42 41 9
a 42 51 6
a 51 42 6
a 42 43 7
a 43 42 7
a 43 52 1
a 52 43 1
a 43 44 3
a 44 43 3
a 44 53 3
a 53 44 3
a 44 45 4
a 45 44 4
a 45 54 8
a 54 45 8
a 46 55 7
a 55 46 7
a 46 47 5
a 47 46 5
a 47 56 2
a 56 47 2
a 47 48 7
a 48 47 7
a 48 57 9
a 57 48 9
a 48 49 3
a 49 48 3
a 49 58 3
a 58 49 3
a 49 50 1
a 50 49 1
a 50 59 9
a 59 50 9
a 50 51 2
a 51 50 2
a 51 60 9
a 60 51 9
a 51 52 1
a 52 51 1
a 52 61 3
a 61 52 3
a 52 53 2
a 53 52 2
a 53 62 4
a 62 53 4
a 53 54 1
a 54 53 1
a 54 63 2
a 63 54 2
a 55 64 7
a 64 55 7
a 55 56 3
a 56 55 3
a 56 65 10
a 65 56 10
a 56 57 8
a 57 56 8
a 57 66 5
a 66 57 5
a 57 58 3
a 58 57 3
a 58 67 7
a 67 58 7
a 58 59 7
a 59 58 7
a 59 68 6
a 68 59 6
a 59 60 7
a 60 59 7
a 60 69 6
a 69 60 6
a 60 61 1
a 61 60 1
a 61 70 3
a 70 61 3
a 61 62 10
a 62 61 10
a 62 71 5
a 71 62 5
a 62 63 5
a 63 62 5
a 63 72 7
a 72 63 7
a 64 73 5
a 73 64 5
a 64 65 3
a 65 64 3
a 65 74 7
a 74 65 7
a 65 66 2
a 66 65 2
a 66 75 5
a 75 66 5
a 66 67 1
a 67 66 1
a 67 76 9
a 76 67 9
a 67 68 10
a 68 67 10
a 68 77 8
a 77 68 8
a 68 69 1
a 69 68 1
a 69 78 4
a 78 69 4
a 69 70 10
a 70 69 10
a 70 79 3
a 79 70 3
a 70 71 5
a 71 70 5
a 71 80 5
a 80 71 5
a 71 72 9
a 72 71 9
a 72 81 4
a 81 72 4
a 73 74 9
a 74 73 9
a 74 75 10
a 75 74 10
a 75 76 9
a 76 75 9
a 76 77 8
a 77 76 8
a 77 78 5
a 78 77 5
a 78 79 2
a 79 78 2
a 79 80 8
a 80 79 8
a 80 81 6
a 81 80 6
